results_rootrelaxation/bin018_060_034.srr.sol
solution status: optimal solution found
objective value:                                    0
_var2751_                           0.174225996194376 	(obj:0)
_var2754_                           0.132857582879393 	(obj:0)
_var2762_                          0.0040514070619932 	(obj:0)
_var2763_                           0.184779873127312 	(obj:0)
_var2765_                           0.161724540722972 	(obj:0)
_var2774_                          0.0967432031552482 	(obj:0)
_var2786_                           0.421569091421932 	(obj:0)
_var2795_                           0.347055581795102 	(obj:0)
_var2828_                           0.225554750141394 	(obj:0)
_var2832_                          0.0410487380261074 	(obj:0)
_var2845_                           0.178043079953769 	(obj:0)
_var2857_                          0.0230356309384528 	(obj:0)
_var2858_                           0.230162879810895 	(obj:0)
_var2860_                           0.154331439009316 	(obj:0)
_var2870_                           0.124607988427199 	(obj:0)
_var2871_                           0.207966805565986 	(obj:0)
_var2873_                           0.247743625169709 	(obj:0)
_var2876_                           0.138297957111063 	(obj:0)
_var2884_                          0.0164865313147604 	(obj:0)
_var2907_                           0.162274173521485 	(obj:0)
_var2910_                          0.0761742144206694 	(obj:0)
_var2912_                           0.141382344994347 	(obj:0)
_var2920_                             0.4242738420922 	(obj:0)
_var2933_                           0.205769028482054 	(obj:0)
_var2936_                           0.176033281958758 	(obj:0)
_var2943_                           0.379382863843603 	(obj:0)
_var2945_                           0.044274462941685 	(obj:0)
_var2946_                           0.138318690222776 	(obj:0)
_var2947_                           0.103437490397479 	(obj:0)
_var2948_                          0.0112254905321611 	(obj:0)
_var2949_                           0.325668698629642 	(obj:0)
_var2950_                          0.0787435530223119 	(obj:0)
_var2951_                          0.0115078320905714 	(obj:0)
_var2953_                           0.354729278820822 	(obj:0)
_var2956_                          0.0840467295118081 	(obj:0)
_var2957_                           0.161823633823057 	(obj:0)
_var2959_                          0.0222806427068395 	(obj:0)
_var2962_                           0.146263743334352 	(obj:0)
_var2965_                           0.172436341360652 	(obj:0)
_var2966_                           0.206297819864326 	(obj:0)
_var2968_                           0.156804767618513 	(obj:0)
_var2969_                          0.0683548568505182 	(obj:0)
_var2971_                           0.200241501384052 	(obj:0)
_var2975_                         0.00720600163318091 	(obj:0)
_var2977_                          0.0789799450958896 	(obj:0)
_var2978_                           0.154644470528339 	(obj:0)
_var2986_                           0.117359451715523 	(obj:0)
_var2989_                         0.00684645077129957 	(obj:0)
_var2992_                          0.0660149098547821 	(obj:0)
_var2996_                           0.273857453243335 	(obj:0)
_var2998_                         0.00976148240102717 	(obj:0)
_var3002_                          0.0209340818453401 	(obj:0)
_var3003_                          0.0800669865773985 	(obj:0)
_var3006_                           0.170029082078583 	(obj:0)
_var3009_                           0.222854014829738 	(obj:0)
_var3011_                          0.0591606825315563 	(obj:0)
_var3012_                          0.0481712390709359 	(obj:0)
_var3013_                          0.0484314090273415 	(obj:0)
_var3014_                           0.247358380278686 	(obj:0)
_var3015_                          0.0273024545654207 	(obj:0)
_var3016_                          0.0693968935207071 	(obj:0)
_var3017_                          0.0333083196906147 	(obj:0)
_var3019_                           0.110088503181753 	(obj:0)
_var3021_                           0.209003749455868 	(obj:0)
_var3022_                            0.05400967682709 	(obj:0)
_var3025_                           0.234288567438339 	(obj:0)
_var3029_                          0.0644884606494193 	(obj:0)
_var3032_                           0.171373253794619 	(obj:0)
_var3033_                          0.0618205251963702 	(obj:0)
_var3034_                           0.200603165080863 	(obj:0)
_var3035_                            0.18341863747084 	(obj:0)
_var3036_                           0.298817005969409 	(obj:0)
_var3037_                          0.0146611086795366 	(obj:0)
_var3039_                           0.142786235472285 	(obj:0)
_var3043_                         0.00298611658183837 	(obj:0)
_var3044_                           0.239631816679291 	(obj:0)
_var3045_                          0.0921537775793533 	(obj:0)
_var3047_                          0.0918993910675769 	(obj:0)
_var3048_                           0.127812187370846 	(obj:0)
_var3049_                         0.00528651032034283 	(obj:0)
_var3051_                          0.0992755795832378 	(obj:0)
_var3052_                          0.0934970862501271 	(obj:0)
_var3053_                          0.0321627073131054 	(obj:0)
_var3055_                          0.0402311478107399 	(obj:0)
_var3058_                           0.048231228786339 	(obj:0)
_var3059_                            0.23325268340046 	(obj:0)
_var3061_                           0.170145986605333 	(obj:0)
_var3062_                          0.0259650650466324 	(obj:0)
_var3063_                           0.106033143513452 	(obj:0)
_var3064_                           0.106542063190274 	(obj:0)
_var3067_                         0.00768549750207225 	(obj:0)
_var3072_                           0.174247205949632 	(obj:0)
_var3073_                          0.0813352042972833 	(obj:0)
_var3074_                          0.0753169631334183 	(obj:0)
_var3075_                          0.0915905628127655 	(obj:0)
_var3076_                           0.125195512742321 	(obj:0)
_var3077_                          0.0937585696964162 	(obj:0)
_var3078_                           0.144776968430338 	(obj:0)
_var3080_                           0.144880307809216 	(obj:0)
_var3083_                          0.0279735595834312 	(obj:0)
_var3084_                           0.215511275684872 	(obj:0)
_var3086_                           0.253791821647361 	(obj:0)
_var3087_                          0.0586980638325619 	(obj:0)
_var3088_                           0.110073238450976 	(obj:0)
_var3090_                          0.0175687846266064 	(obj:0)
_var3093_                           0.172918743561014 	(obj:0)
_var3094_                          0.0297239341207657 	(obj:0)
_var3095_                           0.240654482856979 	(obj:0)
_var3096_                         0.000761207633652111 	(obj:0)
_var3099_                           0.207851060779746 	(obj:0)
_var3102_                          0.0566316269485662 	(obj:0)
_var3104_                             0.1816236888834 	(obj:0)
_var3105_                          0.0386468761806148 	(obj:0)
_var3106_                          0.0251208694635694 	(obj:0)
_var3107_                           0.071894448388968 	(obj:0)
_var3108_                           0.186208056766478 	(obj:0)
_var3109_                          0.0846115326393808 	(obj:0)
_var3110_                          0.0271231343827055 	(obj:0)
_var3111_                         0.00722193884245239 	(obj:0)
_var3113_                          0.0507283911794381 	(obj:0)
_var3114_                          0.0671077415593418 	(obj:0)
_var3115_                          0.0023041860744904 	(obj:0)
_var3117_                           0.197682706347422 	(obj:0)
_var3119_                          0.0741633831407558 	(obj:0)
_var3122_                           0.224582544215763 	(obj:0)
_var3125_                           0.141590429115001 	(obj:0)
_var3128_                          0.0141670591200858 	(obj:0)
_var3129_                          0.0282235430568877 	(obj:0)
_var3130_                          0.0822376459975984 	(obj:0)
_var3131_                           0.103459262182317 	(obj:0)
_var3132_                           0.108777448378056 	(obj:0)
_var3135_                           0.114868394408063 	(obj:0)
_var3138_                          0.0753613782825063 	(obj:0)
_var3139_                           0.122041755538758 	(obj:0)
_var3143_                          0.0455394377087841 	(obj:0)
_var3144_                         0.00085986742322719 	(obj:0)
_var3145_                          0.0131920737501526 	(obj:0)
_var3146_                           0.106101449541836 	(obj:0)
_var3149_                          0.0203663236882845 	(obj:0)
_var3150_                           0.137277336353599 	(obj:0)
_var3151_                          0.0535847124950946 	(obj:0)
_var3155_                          0.0129532329567333 	(obj:0)
_var3159_                           0.121175033513644 	(obj:0)
_var3160_                          0.0164446115530047 	(obj:0)
_var3161_                          0.0307955478941124 	(obj:0)
_var3163_                          0.0251494791840443 	(obj:0)
_var3164_                         0.000467541281382433 	(obj:0)
_var3166_                         0.00295208004528577 	(obj:0)
_var3173_                          0.0460021097531817 	(obj:0)
_var3174_                          0.0206344665406109 	(obj:0)
_var3175_                         0.00789030691151529 	(obj:0)
_var3178_                           0.013742309334762 	(obj:0)
